
%FILE DATA:	Soccer Computational Problem for MiniZinc Models	%
%AUTHOR:	Jack Wall	%
%CONTACT:  	116397063@umail.ucc.ie			%
%LAST UPDATE:	03/02/2020, 18:19:35						%
%DESCRIPTION: 	77 games played with 33 games left				%


n=11; %number of teams

%Games to play
games=[|1,9|4,2|5,3|11,10|11,4|7,10|1,5|2,6|4,6|11,5|8,10|4,11|10,4|10,8|9,5|4,1|10,6|7,2|5,2|7,9|9,11|2,4|6,8|5,7|6,7|2,9|10,11|10,5|8,7|9,4|10,2|9,2|1,3|];

%Initial points
iPoints=[24,16,21,16,12,23,21,16,23,13,23];

%POSITION CONSTRAINTS
% [|teamID, operator, position|...]
% operators index:
%  1 for =  operator
%  2 for >  operator
%  3 for >= operator
%  4 for <  operator
%  5 for <= operator
positionConstraints=[|9,3,1|6,5,2|11,2,2|4,1,4|7,5,5|];